c "64044.clq"
p edge 138 536
e 1 5
e 1 6
e 1 7
e 1 8
e 1 12
e 1 16
e 1 17
e 1 18
e 1 20
e 1 25
e 1 30
e 1 35
e 1 40
e 1 46
e 1 47
e 1 51
e 1 52
e 1 59
e 1 61
e 1 64
e 1 72
e 1 76
e 1 83
e 1 86
e 1 89
e 1 92
e 1 98
e 1 121
e 1 125
e 1 129
e 2 5
e 2 6
e 2 7
e 2 8
e 2 11
e 2 15
e 2 17
e 2 19
e 2 28
e 2 30
e 2 31
e 2 60
e 2 68
e 2 71
e 2 73
e 2 74
e 2 84
e 2 87
e 2 89
e 2 111
e 2 122
e 2 124
e 3 5
e 3 13
e 3 63
e 4 5
e 4 6
e 4 7
e 4 9
e 4 13
e 4 29
e 4 41
e 4 61
e 4 71
e 4 73
e 4 81
e 4 97
e 4 100
e 4 108
e 5 6
e 5 8
e 5 9
e 5 10
e 5 11
e 5 14
e 5 15
e 5 16
e 5 24
e 5 25
e 5 26
e 5 27
e 5 28
e 5 31
e 5 34
e 5 35
e 5 37
e 5 42
e 5 44
e 5 51
e 5 53
e 5 56
e 5 57
e 5 61
e 5 65
e 5 72
e 5 75
e 5 76
e 5 94
e 5 95
e 5 98
e 5 102
e 5 103
e 5 104
e 5 108
e 5 109
e 5 113
e 5 115
e 5 117
e 5 129
e 6 7
e 6 9
e 6 10
e 6 12
e 6 13
e 6 14
e 6 16
e 6 17
e 6 18
e 6 20
e 6 21
e 6 26
e 6 28
e 6 32
e 6 38
e 6 40
e 6 41
e 6 44
e 6 46
e 6 48
e 6 57
e 6 59
e 6 65
e 6 75
e 6 85
e 6 86
e 6 90
e 6 92
e 6 93
e 6 95
e 6 99
e 6 101
e 6 104
e 6 121
e 6 132
e 6 138
e 7 8
e 7 10
e 7 11
e 7 12
e 7 19
e 7 23
e 7 32
e 7 65
e 7 73
e 7 74
e 7 80
e 7 82
e 7 94
e 7 118
e 8 9
e 8 31
e 8 33
e 8 52
e 8 64
e 8 122
e 9 10
e 9 11
e 9 12
e 9 14
e 9 15
e 9 16
e 9 17
e 9 20
e 9 21
e 9 22
e 9 37
e 9 46
e 9 62
e 9 84
e 9 105
e 9 117
e 9 124
e 9 135
e 10 15
e 10 20
e 10 22
e 10 23
e 10 25
e 10 26
e 10 27
e 10 34
e 10 38
e 10 41
e 10 51
e 10 55
e 10 65
e 10 79
e 10 81
e 10 119
e 11 13
e 11 19
e 11 38
e 11 40
e 11 71
e 11 77
e 11 101
e 11 131
e 12 18
e 12 24
e 12 26
e 12 36
e 12 43
e 12 47
e 12 49
e 12 50
e 12 52
e 12 63
e 12 67
e 12 70
e 12 103
e 12 112
e 12 120
e 12 126
e 12 135
e 13 14
e 13 18
e 13 21
e 13 22
e 13 29
e 13 30
e 13 33
e 13 42
e 13 45
e 13 60
e 13 87
e 13 93
e 13 103
e 13 110
e 13 123
e 14 24
e 14 35
e 14 36
e 14 38
e 14 43
e 14 47
e 14 48
e 14 49
e 14 50
e 14 57
e 14 68
e 14 69
e 14 78
e 14 81
e 14 88
e 14 99
e 14 100
e 14 102
e 14 112
e 14 115
e 14 118
e 14 127
e 14 138
e 15 24
e 15 58
e 15 59
e 15 62
e 15 67
e 15 106
e 15 117
e 15 136
e 16 23
e 16 29
e 16 31
e 16 39
e 16 122
e 17 19
e 17 39
e 17 119
e 18 88
e 18 102
e 18 113
e 19 22
e 19 27
e 19 37
e 19 78
e 19 79
e 19 84
e 19 102
e 19 130
e 20 21
e 20 23
e 20 25
e 20 27
e 20 29
e 20 39
e 20 48
e 20 62
e 20 64
e 20 66
e 20 83
e 20 98
e 20 107
e 20 116
e 20 126
e 20 128
e 21 32
e 21 33
e 21 64
e 21 76
e 21 82
e 21 97
e 21 100
e 21 118
e 21 135
e 22 28
e 22 30
e 23 60
e 23 121
e 24 56
e 24 85
e 24 113
e 24 120
e 25 41
e 25 81
e 25 131
e 26 32
e 26 40
e 26 47
e 26 55
e 26 72
e 26 77
e 27 37
e 27 50
e 27 92
e 27 109
e 28 35
e 28 48
e 28 55
e 28 110
e 28 111
e 28 113
e 29 34
e 29 59
e 29 60
e 29 69
e 29 93
e 30 90
e 30 93
e 30 97
e 31 34
e 31 45
e 31 66
e 31 78
e 31 105
e 32 33
e 32 36
e 32 51
e 32 61
e 32 66
e 32 67
e 32 70
e 32 84
e 32 90
e 32 92
e 32 107
e 32 124
e 32 130
e 33 39
e 33 43
e 33 44
e 33 49
e 33 55
e 33 57
e 33 80
e 33 82
e 33 85
e 33 106
e 33 115
e 34 36
e 34 42
e 34 70
e 34 77
e 34 83
e 34 89
e 34 127
e 34 131
e 34 133
e 34 134
e 35 49
e 35 91
e 36 42
e 36 112
e 36 126
e 37 53
e 37 54
e 37 58
e 37 80
e 37 115
e 38 43
e 38 44
e 38 45
e 38 46
e 38 53
e 38 87
e 38 110
e 38 130
e 38 131
e 39 45
e 39 52
e 39 54
e 39 135
e 40 56
e 40 68
e 40 75
e 40 77
e 40 94
e 41 63
e 42 58
e 42 117
e 43 74
e 43 94
e 43 101
e 44 72
e 44 79
e 44 82
e 44 85
e 44 87
e 45 53
e 45 54
e 45 63
e 45 91
e 45 96
e 45 120
e 45 128
e 46 86
e 46 107
e 48 50
e 48 54
e 48 66
e 48 90
e 48 96
e 48 110
e 48 111
e 49 69
e 49 73
e 49 127
e 50 58
e 50 69
e 51 56
e 51 80
e 51 83
e 51 99
e 52 62
e 52 74
e 52 88
e 52 100
e 53 79
e 53 91
e 54 106
e 54 116
e 54 118
e 55 71
e 56 89
e 56 125
e 57 108
e 57 123
e 58 95
e 59 108
e 60 67
e 60 70
e 61 75
e 61 103
e 65 86
e 65 96
e 65 119
e 65 125
e 65 128
e 66 105
e 66 109
e 66 129
e 67 68
e 67 78
e 67 97
e 67 114
e 67 134
e 68 88
e 68 133
e 69 105
e 69 133
e 72 123
e 73 106
e 74 76
e 74 91
e 74 112
e 74 137
e 75 104
e 76 116
e 76 130
e 77 138
e 78 99
e 79 120
e 79 134
e 79 138
e 80 98
e 80 136
e 81 111
e 82 95
e 82 96
e 82 101
e 82 114
e 82 132
e 84 114
e 84 125
e 88 132
e 94 137
e 95 104
e 96 121
e 97 107
e 100 136
e 101 128
e 101 137
e 102 133
e 102 136
e 103 109
e 109 114
e 109 127
e 110 119
e 110 134
e 112 132
e 114 122
e 115 116
e 121 124
e 122 123
e 125 126
e 125 129
e 125 137
